\* Source Pyomo model name=Model *\

min 
objective:
+35 flow(house_1_ec_electricity_b_grid_house_1_ec_electricity_grid_in_0)

s.t.

c_e_Bus_balance(house_1__class__mtress_technologies__air_heat_exchanger_AirHeatExchanger___output_0)_:
-1 flow(house_1__class__mtress_technologies__air_heat_exchanger_AirHeatExchanger___output_house_1__class__mtress_technologies__heat_pump_HeatPump____class__mtress_technologies__air_heat_exchanger_AirHeatExchanger___30_0)
+1 flow(house_1__class__mtress_technologies__air_heat_exchanger_AirHeatExchanger___source_house_1__class__mtress_technologies__air_heat_exchanger_AirHeatExchanger___output_0)
= 0

c_e_Bus_balance(house_1__class__mtress_technologies__heat_pump_HeatPump___electricity_0)_:
-1 flow(house_1__class__mtress_technologies__heat_pump_HeatPump___electricity_house_1__class__mtress_technologies__heat_pump_HeatPump____class__mtress_technologies__air_heat_exchanger_AirHeatExchanger___30_0)
+1 flow(house_1_ec_electricity_dist_house_1__class__mtress_technologies__heat_pump_HeatPump___electricity_0)
= 0

c_e_Bus_balance(house_1__class__mtress_technologies__heat_pump_HeatPump___heat_budget_bus_0)_:
-1 flow(house_1__class__mtress_technologies__heat_pump_HeatPump___heat_budget_bus_house_1__class__mtress_technologies__heat_pump_HeatPump____class__mtress_technologies__air_heat_exchanger_AirHeatExchanger___30_0)
+1 flow(house_1__class__mtress_technologies__heat_pump_HeatPump___heat_budget_source_house_1__class__mtress_technologies__heat_pump_HeatPump___heat_budget_bus_0)
= 0

c_e_Bus_balance(house_1_d_electricity_input_0)_:
+1 flow(house_1_ec_electricity_dist_house_1_d_electricity_input_0)
= 9

c_e_Bus_balance(house_1_d_fixedtemperatureheat_drained_heat_0)_:
+1 flow(house_1_d_fixedtemperatureheat_heat_exchanger_house_1_d_fixedtemperatureheat_drained_heat_0)
= 50

c_e_Bus_balance(house_1_ec_electricity_b_export_0)_:
+1 flow(house_1_ec_electricity_b_export_house_1_ec_electricity_grid_out_0)
= 0

c_e_Bus_balance(house_1_ec_electricity_b_grid_0)_:
-1 flow(house_1_ec_electricity_b_grid_house_1_ec_electricity_grid_in_0)
+1 flow(house_1_ec_electricity_s_import_house_1_ec_electricity_b_grid_0)
= 0

c_e_Bus_balance(house_1_ec_electricity_dist_0)_:
-1 flow(house_1_ec_electricity_dist_house_1__class__mtress_technologies__heat_pump_HeatPump___electricity_0)
-1 flow(house_1_ec_electricity_dist_house_1_d_electricity_input_0)
+1 flow(house_1_ec_electricity_grid_in_house_1_ec_electricity_dist_0)
+1 flow(house_1_ec_electricity_prod_house_1_ec_electricity_dist_0)
= 0

c_e_Bus_balance(house_1_ec_electricity_grid_in_0)_:
+1 flow(house_1_ec_electricity_b_grid_house_1_ec_electricity_grid_in_0)
-1 flow(house_1_ec_electricity_grid_in_house_1_ec_electricity_dist_0)
= 0

c_e_Bus_balance(house_1_ec_electricity_grid_out_0)_:
+1 flow(house_1_ec_electricity_b_export_house_1_ec_electricity_grid_out_0)
-1 flow(house_1_ec_electricity_grid_out_house_1_ec_electricity_export_0)
= 0

c_e_Bus_balance(house_1_ec_electricity_prod_0)_:
+1 flow(house_1_ec_electricity_prod_house_1_ec_electricity_dist_0)
= 0

c_e_Bus_balance(house_1_ec_heat_in_30_0)_:
+1 flow(house_1__class__mtress_technologies__heat_pump_HeatPump____class__mtress_technologies__air_heat_exchanger_AirHeatExchanger___30_house_1_ec_heat_in_30_0)
-1 flow(house_1_ec_heat_in_30_house_1_ec_heat_out_30_0)
= 0

c_e_Bus_balance(house_1_ec_heat_out_30_0)_:
+1 flow(house_1_ec_heat_in_30_house_1_ec_heat_out_30_0)
-1 flow(house_1_ec_heat_out_30_house_1_d_fixedtemperatureheat_heat_exchanger_0)
= 0

c_e_Transformer_relation(house_1__class__mtress_technologies__heat_pump_HeatPump____class__mtress_technologies__air_heat_exchanger_AirHeatExchanger___30_house_1__class__mtress_technologies__air_heat_exchanger_AirHeatExchanger___output_house_1_ec_heat_in_30_0)_:
+1 flow(house_1__class__mtress_technologies__air_heat_exchanger_AirHeatExchanger___output_house_1__class__mtress_technologies__heat_pump_HeatPump____class__mtress_technologies__air_heat_exchanger_AirHeatExchanger___30_0)
-0.82953214846595213 flow(house_1__class__mtress_technologies__heat_pump_HeatPump____class__mtress_technologies__air_heat_exchanger_AirHeatExchanger___30_house_1_ec_heat_in_30_0)
= 0

c_e_Transformer_relation(house_1__class__mtress_technologies__heat_pump_HeatPump____class__mtress_technologies__air_heat_exchanger_AirHeatExchanger___30_house_1__class__mtress_technologies__heat_pump_HeatPump___electricity_house_1_ec_heat_in_30_0)_:
-0.17046785153404781 flow(house_1__class__mtress_technologies__heat_pump_HeatPump____class__mtress_technologies__air_heat_exchanger_AirHeatExchanger___30_house_1_ec_heat_in_30_0)
+1 flow(house_1__class__mtress_technologies__heat_pump_HeatPump___electricity_house_1__class__mtress_technologies__heat_pump_HeatPump____class__mtress_technologies__air_heat_exchanger_AirHeatExchanger___30_0)
= 0

c_e_Transformer_relation(house_1__class__mtress_technologies__heat_pump_HeatPump____class__mtress_technologies__air_heat_exchanger_AirHeatExchanger___30_house_1__class__mtress_technologies__heat_pump_HeatPump___heat_budget_bus_house_1_ec_heat_in_30_0)_:
-1 flow(house_1__class__mtress_technologies__heat_pump_HeatPump____class__mtress_technologies__air_heat_exchanger_AirHeatExchanger___30_house_1_ec_heat_in_30_0)
+1 flow(house_1__class__mtress_technologies__heat_pump_HeatPump___heat_budget_bus_house_1__class__mtress_technologies__heat_pump_HeatPump____class__mtress_technologies__air_heat_exchanger_AirHeatExchanger___30_0)
= 0

c_e_Transformer_relation(house_1_d_fixedtemperatureheat_heat_exchanger_house_1_ec_heat_out_30_house_1_d_fixedtemperatureheat_drained_heat_0)_:
-1 flow(house_1_d_fixedtemperatureheat_heat_exchanger_house_1_d_fixedtemperatureheat_drained_heat_0)
+1 flow(house_1_ec_heat_out_30_house_1_d_fixedtemperatureheat_heat_exchanger_0)
= 0

c_u_InvestmentFlow_max(house_1_ec_electricity_b_grid_house_1_ec_electricity_grid_in_0)_:
-1 InvestmentFlow_invest(house_1_ec_electricity_b_grid_house_1_ec_electricity_grid_in)
+1 flow(house_1_ec_electricity_b_grid_house_1_ec_electricity_grid_in_0)
<= 0

c_e_ONE_VAR_CONSTANT: 
ONE_VAR_CONSTANT = 1.0

bounds
   0 <= flow(house_1__class__mtress_technologies__air_heat_exchanger_AirHeatExchanger___output_house_1__class__mtress_technologies__heat_pump_HeatPump____class__mtress_technologies__air_heat_exchanger_AirHeatExchanger___30_0) <= +inf
   0 <= flow(house_1__class__mtress_technologies__air_heat_exchanger_AirHeatExchanger___source_house_1__class__mtress_technologies__air_heat_exchanger_AirHeatExchanger___output_0) <= +inf
   0 <= flow(house_1__class__mtress_technologies__heat_pump_HeatPump____class__mtress_technologies__air_heat_exchanger_AirHeatExchanger___30_house_1_ec_heat_in_30_0) <= +inf
   0 <= flow(house_1__class__mtress_technologies__heat_pump_HeatPump___electricity_house_1__class__mtress_technologies__heat_pump_HeatPump____class__mtress_technologies__air_heat_exchanger_AirHeatExchanger___30_0) <= +inf
   0 <= flow(house_1__class__mtress_technologies__heat_pump_HeatPump___heat_budget_bus_house_1__class__mtress_technologies__heat_pump_HeatPump____class__mtress_technologies__air_heat_exchanger_AirHeatExchanger___30_0) <= +inf
   0 <= flow(house_1__class__mtress_technologies__heat_pump_HeatPump___heat_budget_source_house_1__class__mtress_technologies__heat_pump_HeatPump___heat_budget_bus_0) <= +inf
   0 <= flow(house_1_d_fixedtemperatureheat_heat_exchanger_house_1_d_fixedtemperatureheat_drained_heat_0) <= +inf
   0 <= flow(house_1_ec_electricity_b_export_house_1_ec_electricity_grid_out_0) <= +inf
   0 <= flow(house_1_ec_electricity_b_grid_house_1_ec_electricity_grid_in_0) <= +inf
   0 <= flow(house_1_ec_electricity_dist_house_1__class__mtress_technologies__heat_pump_HeatPump___electricity_0) <= +inf
   0 <= flow(house_1_ec_electricity_dist_house_1_d_electricity_input_0) <= +inf
   0 <= flow(house_1_ec_electricity_grid_in_house_1_ec_electricity_dist_0) <= +inf
   0 <= flow(house_1_ec_electricity_grid_out_house_1_ec_electricity_export_0) <= +inf
   0 <= flow(house_1_ec_electricity_prod_house_1_ec_electricity_dist_0) <= +inf
   0 <= flow(house_1_ec_electricity_s_import_house_1_ec_electricity_b_grid_0) <= +inf
   0 <= flow(house_1_ec_heat_in_30_house_1_ec_heat_out_30_0) <= +inf
   0 <= flow(house_1_ec_heat_out_30_house_1_d_fixedtemperatureheat_heat_exchanger_0) <= +inf
   0 <= InvestmentFlow_invest(house_1_ec_electricity_b_grid_house_1_ec_electricity_grid_in) <= +inf
end
